100
649 702 958 197 66 825 334 373 815 184 910 492 72 918 573 79 839 775 741 658 993 13 975 643 253 613 338 651 705 525 99 392 303 750 932 776 531 171 708 266 998 173 969 16 780 347 575 416 308 438 816 353 361 782 178 358 517 518 170 765 490 92 339 58 344 115 255 556 690 300 464 514 586 907 217 774 555 895 686 4 58 798 297 615 98 563 411 461 4 896 844 743 621 227 192 838 330 384 881 345 
748 638 1029 156 23 817 399 293 834 256 816 490 54 911 640 79 800 715 805 588 1036 113 1014 724 178 635 360 566 692 486 26 372 220 834 865 785 573 75 797 350 1014 177 1039 70 724 433 515 428 317 492 789 380 302 821 110 328 521 564 252 858 484 13 358 92 391 24 314 482 757 397 473 504 618 833 249 844 642 936 730 101 61 765 396 527 69 612 500 521 20 956 788 749 644 324 136 808 291 343 814 326 
24793
